Problem:    
Rows:       264
Columns:    117 (100 integer, 100 binary)
Non-zeros:  890
Status:     INTEGER OPTIMAL
Objective:  value = 112.018812 (MINimum)

   No.   Row name        Activity     Lower bound   Upper bound
------ ------------    ------------- ------------- -------------
     1 r.5                   1112.02             0               
     2 r.6                  -964.959      -964.959               
     3 r.7                   112.019             0               
     4 r.8                   7.40764       -961.38               
     5 r.9                   112.019             0               
     6 r.10                   2.9733      -964.834               
     7 r.11                  1112.02             0               
     8 r.12                 -930.254      -961.789               
     9 r.13                  112.019             0               
    10 r.14                 -37.9771      -997.491               
    11 r.15                  1112.02             0               
    12 r.16                 -987.561      -994.969               
    13 r.17                  1112.02             0               
    14 r.18                  -959.07      -994.273               
    15 r.19                  112.019             0               
    16 r.20                 -880.233      -992.252               
    17 r.21                  112.019             0               
    18 r.22                 -871.455      -983.474               
    19 r.23                  1112.02             0               
    20 r.24                 -968.466      -980.904               
    21 r.25                  1112.02             0               
    22 r.26                 -889.833      -930.764               
    23 r.27                  112.019             0               
    24 r.28                  -749.98      -869.747               
    25 r.29                  1112.02             0               
    26 r.30                 -887.981      -998.148               
    27 r.31                  112.019             0               
    28 r.32                 -880.233      -997.814               
    29 r.33                  112.019             0               
    30 r.34                  35.2029      -961.986               
    31 r.35                  1112.02             0               
    32 r.36                 -887.981      -969.295               
    33 r.37                        1             1             = 
    34 r.38                        1             1             = 
    35 r.39                        1             1             = 
    36 r.40                        1             1             = 
    37 r.41                        1             1             = 
    38 r.42                        1             1             = 
    39 r.43                        1             1             = 
    40 r.44                        1             1             = 
    41 r.45                  967.933       35.1662               
    42 r.46                 -962.148      -964.959               
    43 r.47                  62.3382       38.2113               
    44 r.48                 -73.9066       -961.38               
    45 r.49                  926.982       2.50925               
    46 r.50                 -926.982      -964.959               
    47 r.51                  5.03114       5.03114               
    48 r.52                 -5.03114       -961.38               
    49 r.53                  5.88954        5.7273               
    50 r.54                 -5.88954      -964.959               
    51 r.55                  112.359        7.7481               
    52 r.56                 -112.359       -961.38               
    53 r.57                  93.5046       16.5265               
    54 r.58                 -93.5046      -964.959               
    55 r.59                  24.1268       19.0957               
    56 r.60                 -24.1268       -961.38               
    57 r.61                  75.1259       69.2364               
    58 r.62                 -75.1259      -964.959               
    59 r.63                  242.612       130.253               
    60 r.64                 -242.612       -961.38               
    61 r.65                 -923.022      -986.636               
    62 r.66                 -915.274      -974.791               
    63 r.67                 -895.389      -986.636               
    64 r.68                 -887.641      -974.791               
    65 r.69                 0.162245      -938.849               
    66 r.70                 -923.022      -923.022               
    67 r.71                  27.7953      -938.849               
    68 r.72                 -895.389      -923.022               
    69 r.73                  37.8516       35.0407               
    70 r.74                 -37.8516      -964.834               
    71 r.75                  926.093       38.6202               
    72 r.76                 -926.093      -961.789               
    73 r.77                  964.834       2.50925               
    74 r.78                 -964.834      -964.834               
    75 r.79                  931.125       5.03114               
    76 r.80                 -931.125      -961.789               
    77 r.81                  43.7411        5.7273               
    78 r.82                 -43.7411      -964.834               
    79 r.83                  38.4527        7.7481               
    80 r.84                 -38.4527      -961.789               
    81 r.85                  131.356       16.5265               
    82 r.86                 -131.356      -964.834               
    83 r.87                   950.22       19.0957               
    84 r.88                  -950.22      -961.789               
    85 r.89                  112.978       69.2364               
    86 r.90                 -112.978      -964.834               
    87 r.91                  168.705       130.253               
    88 r.92                 -168.705      -961.789               
    89 r.93                  -885.17      -986.636               
    90 r.94                 -877.422      -974.791               
    91 r.95                 -969.295      -986.636               
    92 r.96                 -961.547      -974.791               
    93 r.97                  38.0138       38.0138               
    94 r.98                 -38.0138      -964.834               
    95 r.99                  30.7046       30.7046               
    96 r.100                -30.7046      -961.789               
    97 r.101                 73.0178       35.0407               
    98 r.102                -73.0178      -997.491               
    99 r.103                 994.969       38.6202               
   100 r.104                -994.969      -994.969               
   101 r.105                 40.9504       35.1662               
   102 r.106                -35.1662      -997.491               
   103 r.107                  57.307       38.2113               
   104 r.108                -68.8754      -994.969               
   105 r.109                 78.9073        5.7273               
   106 r.110                -78.9073      -997.491               
   107 r.111                 107.328        7.7481               
   108 r.112                -107.328      -994.969               
   109 r.113                 166.522       16.5265               
   110 r.114                -166.522      -997.491               
   111 r.115                 19.0957       19.0957               
   112 r.116                -19.0957      -994.969               
   113 r.117                 148.144       69.2364               
   114 r.118                -148.144      -997.491               
   115 r.119                 237.581       130.253               
   116 r.120                -237.581      -994.969               
   117 r.121                -850.004      -986.636               
   118 r.122                -842.256      -974.791               
   119 r.123                 -900.42      -986.636               
   120 r.124                -892.672      -974.791               
   121 r.125                   73.18      -938.849               
   122 r.126                -850.004      -923.022               
   123 r.127                 22.7641      -938.849               
   124 r.128                 -900.42      -923.022               
   125 r.129                  994.11       35.0407               
   126 r.130                 -994.11      -994.273               
   127 r.131                 887.641       38.6202               
   128 r.132                -887.641      -992.252               
   129 r.133                 962.043       35.1662               
   130 r.134                -956.259      -994.273               
   131 r.135                 949.979       38.2113               
   132 r.136                -961.547      -992.252               
   133 r.137                 921.093       2.50925               
   134 r.138                -921.093      -994.273               
   135 r.139                 892.672       5.03114               
   136 r.140                -892.672      -992.252               
   137 r.141                 87.6151       16.5265               
   138 r.142                -87.6151      -994.273               
   139 r.143                 911.768       19.0957               
   140 r.144                -911.768      -992.252               
   141 r.145                 69.2364       69.2364               
   142 r.146                -69.2364      -994.273               
   143 r.147                 130.253       130.253               
   144 r.148                -130.253      -992.252               
   145 r.149                -928.911      -986.636               
   146 r.150                -921.163      -974.791               
   147 r.151                 -7.7481      -986.636               
   148 r.152                       0      -974.791               
   149 r.153                 994.273       38.0138               
   150 r.154                -994.273      -994.273               
   151 r.155                 992.252       30.7046               
   152 r.156                -992.252      -992.252               
   153 r.157                 906.495       35.0407               
   154 r.158                -906.495      -983.474               
   155 r.159                 975.873       38.6202               
   156 r.160                -975.873      -980.904               
   157 r.161                 874.428       35.1662               
   158 r.162                -868.644      -983.474               
   159 r.163                 38.2113       38.2113               
   160 r.164                -49.7797      -980.904               
   161 r.165                 833.478       2.50925               
   162 r.166                -833.478      -983.474               
   163 r.167                 980.904       5.03114               
   164 r.168                -980.904      -980.904               
   165 r.169                 912.385        5.7273               
   166 r.170                -912.385      -983.474               
   167 r.171                 88.2324        7.7481               
   168 r.172                -88.2324      -980.904               
   169 r.173                 981.621       69.2364               
   170 r.174                -981.621      -983.474               
   171 r.175                 218.485       130.253               
   172 r.176                -218.485      -980.904               
   173 r.177                 983.474        1.8522               
   174 r.178                -983.474      -983.474               
   175 r.179                 88.2324       2.18589               
   176 r.180                -88.2324      -980.904               
   177 r.181                 906.658      -938.849               
   178 r.182                -16.5265      -923.022               
   179 r.183                 3.66843      -938.849               
   180 r.184                -919.516      -923.022               
   181 r.185                 924.874       35.0407               
   182 r.186                -924.874      -930.764               
   183 r.187                 757.388       38.6202               
   184 r.188                -757.388      -869.747               
   185 r.189                 892.807       35.1662               
   186 r.190                -887.022      -930.764               
   187 r.191                 819.726       38.2113               
   188 r.192                -831.295      -869.747               
   189 r.193                 851.856       2.50925               
   190 r.194                -851.856      -930.764               
   191 r.195                 762.419       5.03114               
   192 r.196                -762.419      -869.747               
   193 r.197                 930.764        5.7273               
   194 r.198                -930.764      -930.764               
   195 r.199                 869.747        7.7481               
   196 r.200                -869.747      -869.747               
   197 r.201                 18.3787       16.5265               
   198 r.202                -18.3787      -930.764               
   199 r.203                 781.515       19.0957               
   200 r.204                -781.515      -869.747               
   201 r.205                  1.8522        1.8522               
   202 r.206                 -1.8522      -930.764               
   203 r.207                 869.747       2.18589               
   204 r.208                -869.747      -869.747               
   205 r.209                 925.036       38.0138               
   206 r.210                -925.036      -930.764               
   207 r.211                 861.999       30.7046               
   208 r.212                -861.999      -869.747               
   209 r.213                -923.022      -986.636               
   210 r.214                -915.274      -974.791               
   211 r.215                -895.389      -986.636               
   212 r.216                -887.641      -974.791               
   213 r.217                 -885.17      -986.636               
   214 r.218                -877.422      -974.791               
   215 r.219                -969.295      -986.636               
   216 r.220                -961.547      -974.791               
   217 r.221                -850.004      -986.636               
   218 r.222                -842.256      -974.791               
   219 r.223                 -900.42      -986.636               
   220 r.224                -892.672      -974.791               
   221 r.225                -928.911      -986.636               
   222 r.226                -921.163      -974.791               
   223 r.227                 -7.7481      -986.636               
   224 r.228                       0      -974.791               
   225 r.229                 16.5265       16.5265               
   226 r.230                -16.5265      -998.148               
   227 r.231                 911.768       19.0957               
   228 r.232                -911.768      -997.814               
   229 r.233                 998.148       69.2364               
   230 r.234                -998.148      -998.148               
   231 r.235                 130.253       130.253               
   232 r.236                -130.253      -997.814               
   233 r.237                 923.184       38.0138               
   234 r.238                -923.184      -998.148               
   235 r.239                 992.252       30.7046               
   236 r.240                -992.252      -997.814               
   237 r.241                0.162245      -938.849               
   238 r.242                -923.022      -923.022               
   239 r.243                 27.7953      -938.849               
   240 r.244                -895.389      -923.022               
   241 r.245                  967.77       35.1662               
   242 r.246                -961.986      -961.986               
   243 r.247                 957.727       38.2113               
   244 r.248                -969.295      -969.295               
   245 r.249                   73.18      -938.849               
   246 r.250                -850.004      -923.022               
   247 r.251                 22.7641      -938.849               
   248 r.252                 -900.42      -923.022               
   249 r.253                  5.7273        5.7273               
   250 r.254                 -5.7273      -961.986               
   251 r.255                  7.7481        7.7481               
   252 r.256                 -7.7481      -969.295               
   253 r.257                 906.658      -938.849               
   254 r.258                -16.5265      -923.022               
   255 r.259                 3.66843      -938.849               
   256 r.260                -919.516      -923.022               
   257 r.261                 74.9637       69.2364               
   258 r.262                -74.9637      -961.986               
   259 r.263                 138.001       130.253               
   260 r.264                -138.001      -969.295               
   261 r.265                 76.8159        1.8522               
   262 r.266                -76.8159      -961.986               
   263 r.267                  7.7481       2.18589               
   264 r.268                 -7.7481      -969.295               

   No. Column name       Activity     Lower bound   Upper bound
------ ------------    ------------- ------------- -------------
     1 tt                    112.019             0               
     2 s_1_1        *              1             0             1 
     3 t_1_1                 76.9781             0               
     4 s_1_9        *              1             0             1 
     5 s_2_1        *              0             0             1 
     6 t_2_1                 104.611             0               
     7 s_2_9        *              0             0             1 
     8 s_1_2        *              0             0             1 
     9 t_1_2                  114.83             0               
    10 s_2_2        *              1             0             1 
    11 t_2_2                 30.7046             0               
    12 s_1_3        *              0             0             1 
    13 t_1_3                 149.996             0               
    14 s_1_10       *              0             0             1 
    15 s_2_3        *              1             0             1 
    16 t_2_3                   99.58             0               
    17 s_2_10       *              1             0             1 
    18 s_1_4        *              1             0             1 
    19 t_1_4                 71.0886             0               
    20 s_2_4        *              0             0             1 
    21 t_2_4                 992.252             0               
    22 s_1_5        *              0             0             1 
    23 t_1_5                 983.474             0               
    24 s_2_5        *              1             0             1 
    25 t_2_5                 80.4843             0               
    26 s_1_8        *              1             0             1 
    27 t_1_8                  1.8522             0               
    28 s_2_8        *              0             0             1 
    29 t_2_8                 861.999             0               
    30 t_1_9                       0             0               
    31 t_2_9                 992.252             0               
    32 t_1_10                76.8159             0               
    33 t_2_10                      0             0               
    34 u_1_1_2      *              1             0             1 
    35 u_2_1_2      *              0             0             1 
    36 u_1_1_3      *              1             0             1 
    37 u_2_1_3      *              0             0             1 
    38 u_1_1_4      *              0             0             1 
    39 u_2_1_4      *              1             0             1 
    40 u_1_1_5      *              1             0             1 
    41 u_2_1_5      *              0             0             1 
    42 u_1_1_8      *              0             0             1 
    43 u_2_1_8      *              1             0             1 
    44 u_1_2_1      *              0             0             1 
    45 u_2_2_1      *              1             0             1 
    46 u_1_2_3      *              1             0             1 
    47 u_2_2_3      *              1             0             1 
    48 u_1_2_4      *              0             0             1 
    49 u_2_2_4      *              1             0             1 
    50 u_1_2_5      *              1             0             1 
    51 u_2_2_5      *              1             0             1 
    52 u_1_2_8      *              0             0             1 
    53 u_2_2_8      *              1             0             1 
    54 u_1_2_10     *              0             0             1 
    55 u_2_2_10     *              0             0             1 
    56 u_1_3_1      *              0             0             1 
    57 u_2_3_1      *              1             0             1 
    58 u_1_3_2      *              0             0             1 
    59 u_2_3_2      *              0             0             1 
    60 u_1_3_4      *              0             0             1 
    61 u_2_3_4      *              1             0             1 
    62 u_1_3_5      *              1             0             1 
    63 u_2_3_5      *              0             0             1 
    64 u_1_3_8      *              0             0             1 
    65 u_2_3_8      *              1             0             1 
    66 u_1_4_1      *              1             0             1 
    67 u_2_4_1      *              0             0             1 
    68 u_1_4_2      *              1             0             1 
    69 u_2_4_2      *              0             0             1 
    70 u_1_4_3      *              1             0             1 
    71 u_2_4_3      *              0             0             1 
    72 u_1_4_5      *              1             0             1 
    73 u_2_4_5      *              0             0             1 
    74 u_1_4_8      *              0             0             1 
    75 u_2_4_8      *              0             0             1 
    76 u_1_4_10     *              1             0             1 
    77 u_2_4_10     *              0             0             1 
    78 u_1_5_1      *              0             0             1 
    79 u_2_5_1      *              1             0             1 
    80 u_1_5_2      *              0             0             1 
    81 u_2_5_2      *              0             0             1 
    82 u_1_5_3      *              0             0             1 
    83 u_2_5_3      *              1             0             1 
    84 u_1_5_4      *              0             0             1 
    85 u_2_5_4      *              1             0             1 
    86 u_1_5_8      *              0             0             1 
    87 u_2_5_8      *              1             0             1 
    88 u_1_5_9      *              0             0             1 
    89 u_2_5_9      *              1             0             1 
    90 u_1_8_1      *              1             0             1 
    91 u_2_8_1      *              0             0             1 
    92 u_1_8_2      *              1             0             1 
    93 u_2_8_2      *              0             0             1 
    94 u_1_8_3      *              1             0             1 
    95 u_2_8_3      *              0             0             1 
    96 u_1_8_4      *              1             0             1 
    97 u_2_8_4      *              1             0             1 
    98 u_1_8_5      *              1             0             1 
    99 u_2_8_5      *              0             0             1 
   100 u_1_8_9      *              0             0             1 
   101 u_2_8_9      *              1             0             1 
   102 u_1_8_10     *              1             0             1 
   103 u_2_8_10     *              0             0             1 
   104 u_1_9_5      *              1             0             1 
   105 u_2_9_5      *              0             0             1 
   106 u_1_9_8      *              1             0             1 
   107 u_2_9_8      *              0             0             1 
   108 u_1_9_10     *              1             0             1 
   109 u_2_9_10     *              0             0             1 
   110 u_1_10_2     *              1             0             1 
   111 u_2_10_2     *              1             0             1 
   112 u_1_10_4     *              0             0             1 
   113 u_2_10_4     *              1             0             1 
   114 u_1_10_8     *              0             0             1 
   115 u_2_10_8     *              1             0             1 
   116 u_1_10_9     *              0             0             1 
   117 u_2_10_9     *              1             0             1 

Integer feasibility conditions:

KKT.PE: max.abs.err = 2.27e-13 on row 163
        max.rel.err = 1.04e-16 on row 163
        High quality

KKT.PB: max.abs.err = 7.11e-15 on row 111
        max.rel.err = 3.54e-16 on row 111
        High quality

End of output
